
Gurobi 10.0.0 (win64) logging started Wed Jun 12 15:25:18 2024

Set parameter LogFile to value "C:\Users\ealvarezq\Documents\GitHub\Comillas\Models\JointResearch\05. Models\06.Benchmarking\B.Operation_cost\RTS24_mod2_ByStages_nc150/openStarNet_RTS24_mod2_ByStages_nc150.log"
Set parameter Method to value 2
Set parameter MIPFocus to value 1
Set parameter Presolve to value 2
Set parameter RINS to value 100
Set parameter MIPGap to value 0.01
Set parameter Threads to value 9
Set parameter TimeLimit to value 259200
Set parameter IterationLimit to value 760000000
Gurobi Optimizer version 10.0.0 build v10.0.0rc2 (win64)

CPU model: Intel(R) Core(TM) i7-8700 CPU @ 3.20GHz, instruction set [SSE2|AVX|AVX2]
Thread count: 6 physical cores, 12 logical processors, using up to 9 threads

Optimize a model with 53253 rows, 35903 columns and 145004 nonzeros
Model fingerprint: 0x9c5324e3
Variable types: 35882 continuous, 21 integer (21 binary)
Coefficient statistics:
  Matrix range     [1e-03, 5e+02]
  Objective range  [1e+00, 1e+00]
  Bounds range     [3e-05, 3e+00]
  RHS range        [3e-05, 3e+00]
Presolve removed 31690 rows and 18124 columns
Presolve time: 0.20s
Presolved: 21563 rows, 17779 columns, 77868 nonzeros
Variable types: 17758 continuous, 21 integer (21 binary)
Root relaxation presolved: 21563 rows, 17779 columns, 77868 nonzeros

Root barrier log...

Ordering time: 0.01s

Barrier statistics:
 Dense cols : 21
 AA' NZ     : 1.445e+05
 Factor NZ  : 4.139e+05 (roughly 20 MB of memory)
 Factor Ops : 8.483e+06 (less than 1 second per iteration)
 Threads    : 8

                  Objective                Residual
Iter       Primal          Dual         Primal    Dual     Compl     Time
   0   6.54250361e+05 -1.03373853e+08  5.12e+00 1.49e+02  5.66e+03     0s
   1   9.86553603e+04 -2.61224291e+07  6.35e-01 3.28e-09  7.65e+02     0s
   2   3.99552570e+04 -5.09728940e+06  1.55e-01 1.01e-09  1.26e+02     0s
   3   1.98529136e+04 -4.94763314e+05  7.34e-03 1.42e-10  1.04e+01     0s
   4   7.44748134e+03 -7.64718624e+04  3.24e-04 4.27e-11  1.67e+00     0s
   5   2.59707604e+03 -1.60168849e+04  4.86e-05 4.05e-11  3.70e-01     0s
   6   8.35654711e+02 -4.78828196e+03  1.04e-05 9.32e-12  1.12e-01     0s
   7   3.33279275e+02 -1.32896127e+03  2.22e-06 2.27e-12  3.31e-02     0s
   8   1.77337065e+02 -3.13869342e+02  6.57e-07 1.46e-12  9.77e-03     0s
   9   1.21251767e+02 -4.31952091e+01  3.03e-07 1.17e-12  3.27e-03     0s
  10   8.82987776e+01  2.13896496e+01  1.41e-07 1.04e-12  1.33e-03     0s
  11   7.37529899e+01  4.09395830e+01  7.56e-08 1.10e-12  6.52e-04     0s
  12   6.69230217e+01  4.42923891e+01  4.51e-08 1.45e-12  4.50e-04     0s
  13   6.33196077e+01  4.86818420e+01  2.96e-08 1.11e-12  2.91e-04     0s
  14   5.99326444e+01  5.23381204e+01  1.48e-08 1.03e-12  1.51e-04     0s
  15   5.87869868e+01  5.39754732e+01  9.51e-09 7.30e-13  9.57e-05     0s
  16   5.78385597e+01  5.55136719e+01  5.35e-09 6.04e-13  4.62e-05     0s
  17   5.72297672e+01  5.59435194e+01  2.57e-09 1.12e-12  2.56e-05     1s
  18   5.68955346e+01  5.62042362e+01  1.09e-09 1.23e-12  1.37e-05     1s
  19   5.67585431e+01  5.63705597e+01  4.93e-10 6.82e-13  7.71e-06     1s
  20   5.67243921e+01  5.64709574e+01  3.49e-10 9.94e-13  5.04e-06     1s
  21   5.67041644e+01  5.65056015e+01  2.66e-10 9.26e-13  3.95e-06     1s
  22   5.66738724e+01  5.65582958e+01  1.43e-10 9.31e-13  2.30e-06     1s
  23   5.66602408e+01  5.65993073e+01  8.67e-11 6.61e-13  1.21e-06     1s
  24   5.66464582e+01  5.66110063e+01  2.98e-11 6.98e-13  7.05e-07     1s
  25   5.66422551e+01  5.66259500e+01  4.49e-11 8.97e-13  3.24e-07     1s
  26   5.66398354e+01  5.66362687e+01  7.92e-11 1.27e-12  7.09e-08     1s
  27   5.66390342e+01  5.66375879e+01  2.41e-10 1.03e-12  2.88e-08     1s
  28   5.66386873e+01  5.66380388e+01  4.17e-10 1.26e-12  1.29e-08     1s
  29   5.66386239e+01  5.66382567e+01  4.82e-10 1.31e-12  7.30e-09     1s
  30   5.66386042e+01  5.66383599e+01  3.46e-10 9.75e-13  4.86e-09     1s
  31   5.66385659e+01  5.66385386e+01  1.26e-09 6.85e-13  5.42e-10     1s
  32   5.66385605e+01  5.66385599e+01  2.19e-09 1.42e-12  1.26e-11     1s
  33   5.66385603e+01  5.66385603e+01  3.43e-10 1.83e-12  7.25e-15     1s

Barrier solved model in 33 iterations and 0.66 seconds (0.61 work units)
Optimal objective 5.66385603e+01


Root relaxation: objective 5.663856e+01, 3162 iterations, 0.54 seconds (0.48 work units)

    Nodes    |    Current Node    |     Objective Bounds      |     Work
 Expl Unexpl |  Obj  Depth IntInf | Incumbent    BestBd   Gap | It/Node Time

     0     0   56.63856    0   17          -   56.63856      -     -    1s
H    0     0                      93.8775907   56.63856  39.7%     -    1s
     0     0   57.47170    0   11   93.87759   57.47170  38.8%     -    2s
     0     0   57.49396    0   11   93.87759   57.49396  38.8%     -    2s
H    0     0                      86.7387136   57.49396  33.7%     -    2s
     0     0   57.70230    0   12   86.73871   57.70230  33.5%     -    3s
H    0     0                      85.2444220   57.73209  32.3%     -    3s
     0     0   57.73209    0   13   85.24442   57.73209  32.3%     -    3s
     0     0   57.73486    0   11   85.24442   57.73486  32.3%     -    3s
     0     0   57.73492    0   11   85.24442   57.73492  32.3%     -    3s
     0     0   57.80477    0   17   85.24442   57.80477  32.2%     -    4s
     0     0   57.83159    0   12   85.24442   57.83159  32.2%     -    4s
H    0     0                      81.3550502   57.83160  28.9%     -    4s
     0     0   57.83160    0   13   81.35505   57.83160  28.9%     -    4s
     0     0   57.83368    0   13   81.35505   57.83368  28.9%     -    5s
     0     0   57.83400    0   13   81.35505   57.83400  28.9%     -    5s
     0     0   57.83400    0   13   81.35505   57.83400  28.9%     -    5s
     0     0   57.83728    0   13   81.35505   57.83728  28.9%     -    6s
H    0     0                      72.0216221   57.83728  19.7%     -   33s
     0     2   57.83728    0   13   72.02162   57.83728  19.7%     -   34s
     3     8   58.57406    2   15   72.02162   57.86143  19.7%  1779   35s
    42    50   61.01820    7   13   72.02162   59.35491  17.6%  1155   40s
    92    87   67.62952   10   11   72.02162   59.35491  17.6%  1130   50s
   155   109     cutoff   11        72.02162   59.35491  17.6%  1058   55s
   197   128   66.90591    7   13   72.02162   59.95795  16.8%  1041   73s
   240   140     cutoff    8        72.02162   59.95795  16.8%   993   76s
   312   133     cutoff    9        72.02162   60.86337  15.5%   939   80s
   407   142     cutoff    8        72.02162   62.25823  13.6%   899   85s
   513   166   70.38241   12    9   72.02162   63.50453  11.8%   866   90s
   653   176     cutoff   12        72.02162   64.64118  10.2%   806   96s
   698   182     cutoff   18        72.02162   64.64121  10.2%   795  117s
   803   191   66.76141    8   11   72.02162   65.83591  8.59%   769  121s
   930   204   69.34835    9   11   72.02162   66.38055  7.83%   747  126s
  1033   217   69.18416   10   10   72.02162   67.94919  5.65%   738  132s
  1137   212     cutoff   13        72.02162   68.15493  5.37%   711  135s
  1401   155   71.40759   13    8   72.02162   69.12241  4.03%   641  140s

Cutting planes:
  Implied bound: 136
  MIR: 433
  Relax-and-lift: 99

Explored 1882 nodes (1032402 simplex iterations) in 144.71 seconds (228.49 work units)
Thread count was 9 (of 12 available processors)

Solution count 5: 72.0216 81.3551 85.2444 ... 93.8776

Optimal solution found (tolerance 1.00e-02)
Best objective 7.202162211718e+01, best bound 7.202162211718e+01, gap 0.0000%

Gurobi 10.0.0 (win64) logging started Wed Jun 12 15:28:00 2024

Set parameter LogFile to value "C:\Users\ealvarezq\Documents\GitHub\Comillas\Models\JointResearch\05. Models\06.Benchmarking\B.Operation_cost\RTS24_mod2_ByStages_nc150/openStarNet_RTS24_mod2_ByStages_nc150.log"
Set parameter Method to value 2
Set parameter MIPFocus to value 1
Set parameter Presolve to value 2
Set parameter RINS to value 100
Set parameter MIPGap to value 0.01
Set parameter Threads to value 9
Set parameter TimeLimit to value 259200
Set parameter IterationLimit to value 760000000
Gurobi Optimizer version 10.0.0 build v10.0.0rc2 (win64)

CPU model: Intel(R) Core(TM) i7-8700 CPU @ 3.20GHz, instruction set [SSE2|AVX|AVX2]
Thread count: 6 physical cores, 12 logical processors, using up to 9 threads

Optimize a model with 53253 rows, 35882 columns and 132383 nonzeros
Model fingerprint: 0xca573fb7
Coefficient statistics:
  Matrix range     [1e-03, 5e+02]
  Objective range  [1e+00, 1e+00]
  Bounds range     [3e-05, 3e+00]
  RHS range        [3e-05, 2e+01]
Presolve removed 44853 rows and 20754 columns
Presolve time: 0.06s
Presolved: 8400 rows, 15396 columns, 37899 nonzeros

Ordering time: 0.00s

Barrier statistics:
 AA' NZ     : 2.192e+04
 Factor NZ  : 8.325e+04 (roughly 8 MB of memory)
 Factor Ops : 1.221e+06 (less than 1 second per iteration)
 Threads    : 9

                  Objective                Residual
Iter       Primal          Dual         Primal    Dual     Compl     Time
   0   6.34575295e+06 -5.20351673e+07  5.54e+01 2.10e+02  3.63e+04     0s
   1   3.57370591e+05 -4.05098725e+07  2.79e+00 4.09e-12  3.07e+03     0s
   2   5.21380316e+04 -7.59440231e+06  3.34e-01 6.82e-12  3.85e+02     0s
   3   2.46107561e+04 -1.00205448e+06  1.90e-02 2.73e-12  4.01e+01     0s
   4   1.28690340e+04 -2.10124413e+05  6.25e-04 3.87e-12  8.26e+00     0s
   5   5.24623413e+03 -4.18984886e+04  1.03e-05 2.73e-12  1.74e+00     0s
   6   1.62461331e+03 -9.17607117e+03  1.25e-06 8.31e-13  3.99e-01     0s
   7   6.63831130e+02 -4.11281379e+03  3.13e-07 4.68e-13  1.77e-01     0s
   8   3.31280402e+02 -2.17707738e+03  7.75e-08 8.49e-13  9.27e-02     0s
   9   1.73628141e+02 -3.31217561e+02  1.10e-08 9.74e-13  1.87e-02     0s
  10   1.15796358e+02 -7.21772452e+01  2.94e-09 1.68e-12  6.95e-03     0s
  11   9.33863143e+01  1.02263152e+01  1.10e-09 9.40e-13  3.07e-03     0s
  12   8.37732510e+01  4.12657077e+01  5.19e-10 6.81e-13  1.57e-03     0s
  13   7.76849717e+01  5.54547440e+01  2.35e-10 1.01e-12  8.22e-04     0s
  14   7.45671977e+01  6.57851137e+01  9.58e-11 7.46e-13  3.25e-04     0s
  15   7.30844561e+01  6.98570406e+01  1.48e-10 8.84e-13  1.19e-04     0s
  16   7.23474551e+01  7.17564954e+01  1.37e-10 1.05e-12  2.18e-05     0s
  17   7.20758996e+01  7.19602672e+01  3.55e-10 1.30e-12  4.27e-06     0s
  18   7.20247333e+01  7.20100333e+01  1.96e-10 1.09e-12  5.43e-07     0s
  19   7.20219646e+01  7.20200319e+01  2.99e-10 8.18e-13  7.14e-08     0s
  20   7.20216274e+01  7.20216152e+01  1.40e-10 1.05e-12  4.52e-10     0s
  21   7.20216221e+01  7.20216221e+01  1.90e-09 7.55e-13  5.84e-14     0s

Barrier solved model in 21 iterations and 0.19 seconds (0.17 work units)
Optimal objective 7.20216221e+01

Crossover log...

    1703 DPushes remaining with DInf 0.0000000e+00                 0s
       0 DPushes remaining with DInf 0.0000000e+00                 0s

     604 PPushes remaining with PInf 0.0000000e+00                 0s
       0 PPushes remaining with PInf 0.0000000e+00                 0s

  Push phase complete: Pinf 0.0000000e+00, Dinf 1.4934811e-13      0s

Iteration    Objective       Primal Inf.    Dual Inf.      Time
     621    7.2021622e+01   0.000000e+00   0.000000e+00      0s

Use crossover to convert LP symmetric solution to basic solution...
Crossover log...

       0 DPushes remaining with DInf 0.0000000e+00                 0s

     338 PPushes remaining with PInf 0.0000000e+00                 0s
       0 PPushes remaining with PInf 0.0000000e+00                 0s

  Push phase complete: Pinf 0.0000000e+00, Dinf 2.6779481e-13      0s

Iteration    Objective       Primal Inf.    Dual Inf.      Time
     991    7.2021622e+01   0.000000e+00   0.000000e+00      0s

Solved in 991 iterations and 0.29 seconds (0.21 work units)
Optimal objective  7.202162212e+01
